c colouring generated by benchmark framework
p edge 128 5198
v 1 16
v 2 29
v 3 58
v 4 60
v 5 64
v 6 32
v 7 40
v 8 18
v 9 53
v 10 42
v 11 63
v 12 38
v 13 53
v 14 70
v 15 0
v 16 26
v 17 48
v 18 4
v 19 21
v 20 50
v 21 15
v 22 6
v 23 19
v 24 62
v 25 72
v 26 21
v 27 9
v 28 65
v 29 30
v 30 63
v 31 43
v 32 20
v 33 32
v 34 7
v 35 6
v 36 59
v 37 12
v 38 69
v 39 48
v 40 69
v 41 15
v 42 36
v 43 60
v 44 62
v 45 25
v 46 64
v 47 70
v 48 2
v 49 54
v 50 59
v 51 10
v 52 5
v 53 66
v 54 3
v 55 8
v 56 31
v 57 7
v 58 24
v 59 47
v 60 1
v 61 8
v 62 28
v 63 28
v 64 67
v 65 69
v 66 51
v 67 6
v 68 54
v 69 27
v 70 10
v 71 34
v 72 25
v 73 4
v 74 46
v 75 26
v 76 3
v 77 34
v 78 52
v 79 11
v 80 41
v 81 35
v 82 7
v 83 38
v 84 47
v 85 1
v 86 16
v 87 5
v 88 23
v 89 37
v 90 17
v 91 2
v 92 56
v 93 55
v 94 43
v 95 0
v 96 36
v 97 19
v 98 15
v 99 57
v 100 30
v 101 61
v 102 0
v 103 24
v 104 7
v 105 71
v 106 4
v 107 14
v 108 44
v 109 59
v 110 39
v 111 49
v 112 1
v 113 45
v 114 13
v 115 22
v 116 68
v 117 31
v 118 41
v 119 27
v 120 22
v 121 14
v 122 35
v 123 12
v 124 50
v 125 1
v 126 20
v 127 58
v 128 33
